NAME : XML100_2131_14
DIMENSION : 101
NB_CLUSTERS : 8
CLUSTERING_ALG : DBSCAN
CLUSTERING_PARAMS : eps(97), minSamples(3)
CLUSTERS
1 0
2 2 6 8 11 18 19 20 22 25 26 31 32 44 47 51 52 53 55 56 57 59 60 63 66 68 71 75 80 87 88 94 96 100
3 3 5 15 27 28 34 36 37 45 58 61 67 69 72 73 81 84 85
4 4 7 9 17 24 29 38 48 50 54 78 83 91 92 97 99
5 12 14 16 21 30 33 35 39 40 41 43 49 62 65 70 86 93 98
6 13 42 64 74 77
7 1 10 76 79 82 89 90 95
8 23 46
EOF